p cnf 150 210
17 112 -100 0
-63 30 -114 0
-81 92 36 0
62 -60 -118 0
110 -69 -50 0
-127 -146 68 0
25 95 -116 0
-32 150 17 0
-107 -39 -42 0
-18 34 74 0
-124 -53 127 0
47 14 -16 0
61 74 -14 0
-65 42 131 0
-12 95 -6 0
90 7 50 0
56 -26 14 0
28 -146 -45 0
23 -52 -129 0
-5 -138 -80 0
17 130 57 0
3 -27 128 0
-76 -140 -130 0
-111 -16 -130 0
-125 -43 113 0
96 -23 -122 0
-71 61 123 0
22 -68 -148 0
-34 44 38 0
-41 -33 -19 0
38 64 93 0
65 62 55 0
106 133 -109 0
56 -144 146 0
-43 36 -41 0
41 -73 43 0
3 -27 -126 0
-32 78 145 0
114 -98 -38 0
63 14 -47 0
133 -9 38 0
30 84 -122 0
-15 132 -16 0
-106 8 132 0
12 -76 87 0
146 -2 141 0
-96 -24 41 0
-143 -120 37 0
32 126 -107 0
141 -70 43 0
-41 -105 39 0
39 101 134 0
22 -99 -73 0
-19 -83 -5 0
62 -77 146 0
91 -10 42 0
-50 -53 22 0
-91 121 -67 0
-99 -132 138 0
-25 -143 -51 0
-34 -76 -31 0
32 -98 -132 0
83 29 50 0
-114 13 -117 0
67 -6 145 0
75 96 -70 0
15 113 53 0
82 126 -34 0
105 -15 -101 0
144 -122 45 0
111 62 -65 0
-65 19 22 0
61 -146 -2 0
-36 77 85 0
-62 -150 -51 0
-40 -118 49 0
84 -83 14 0
100 -117 37 0
-112 94 44 0
-49 -54 -93 0
71 -21 -54 0
77 91 -47 0
-144 21 -15 0
-37 -95 -109 0
-67 -1 -63 0
-27 -140 -19 0
-81 -129 80 0
124 9 -83 0
-22 124 7 0
143 148 -149 0
-150 148 -100 0
39 -118 -136 0
-83 94 -86 0
20 11 9 0
-43 -107 148 0
14 99 4 0
-105 101 44 0
58 105 88 0
-147 -80 -150 0
-54 -59 129 0
27 -57 -128 0
42 -119 -148 0
110 -144 -107 0
147 126 69 0
-93 -60 -34 0
25 145 -106 0
36 -81 -42 0
-112 46 44 0
-6 112 -143 0
-19 -137 102 0
122 43 75 0
76 39 -41 0
-88 -56 -11 0
-147 1 50 0
102 -62 2 0
-131 38 19 0
-67 112 17 0
30 89 50 0
150 78 75 0
-38 -31 -135 0
-127 -10 -69 0
-75 -34 63 0
31 -9 -113 0
75 -97 71 0
-86 62 125 0
-83 98 -71 0
-106 37 84 0
80 20 34 0
96 3 125 0
-142 84 -14 0
33 -118 -100 0
-131 -8 -143 0
148 -142 98 0
54 15 -25 0
-17 22 60 0
-99 -128 -2 0
-16 78 73 0
133 79 -123 0
-39 3 -33 0
107 108 -74 0
57 43 52 0
75 35 29 0
74 -136 -51 0
133 10 108 0
100 -126 120 0
12 53 -147 0
68 76 115 0
14 6 -19 0
42 -23 -55 0
67 146 -38 0
x -2 3 5 -7 8 -9 11 12 -14 -16 17 -19 21 22 24 26 28 -30 32 33 -34 38 -40 -41 -43 44 45 -47 49 -50 51 52 -55 -56 -57 -60 61 -69 70 71 72 -76 -77 -78 -79 -81 83 84 -85 86 -88 89 90 -91 -94 -95 97 98 -102 -105 -108 -109 110 -114 -115 118 -119 121 122 -123 124 125 -127 -128 129 -130 131 132 134 137 142 144 -145 146 -147 150 0
x -1 2 -7 11 13 14 18 22 -24 -25 -27 30 -32 -35 -37 -38 -41 42 43 45 46 49 -50 51 -53 54 -55 -56 59 61 -64 -65 -66 -67 70 -74 76 82 -83 -87 88 -89 90 95 -97 100 -101 -102 -104 105 107 108 -109 110 -113 115 117 -118 -121 -124 -126 -131 -133 134 -135 136 140 141 -142 -145 -148 0
x -5 -6 8 9 10 11 -14 -15 19 -20 -21 -22 -24 -26 -28 -29 34 -35 -38 39 46 -48 -50 51 52 -53 59 63 67 69 72 75 76 79 -81 83 85 86 -87 -89 91 93 96 -100 102 -104 105 107 109 -110 112 113 -114 -117 118 -119 124 -125 -126 130 -131 133 134 -135 136 -137 139 -140 141 -143 -144 -145 146 148 149 0
x -2 3 4 -6 -7 -9 10 12 13 15 18 -20 22 23 -24 25 26 -27 28 -29 30 -38 40 43 45 -47 -50 -53 54 -55 57 -60 -62 65 67 70 72 -73 -74 75 -76 -79 -80 -81 -82 83 84 85 -86 -87 -91 -93 -94 95 96 -97 -99 102 -104 106 -107 -108 -114 -121 122 126 -127 -128 -135 136 139 -140 142 -148 149 0
x 1 3 -4 5 6 -9 -11 14 -15 -16 19 20 -21 -22 -24 26 29 -32 -35 36 37 -40 42 -43 44 -46 -47 -48 49 50 -53 54 -55 -56 -61 -63 -65 67 -68 69 -72 73 -74 -75 -76 77 78 -79 80 -81 -82 -86 -87 -88 -90 -91 -92 93 -94 -96 -97 -99 105 106 107 -109 110 111 113 118 -119 -121 123 -124 128 129 133 134 -135 -136 -138 144 -145 -146 147 149 -150 0
x 2 5 10 -11 -14 21 22 27 -29 30 31 -32 34 36 -38 39 -46 48 -49 52 -53 -54 55 -59 60 -62 63 64 68 -69 70 76 78 79 81 82 -83 -85 86 88 90 101 102 -110 111 113 114 -115 -118 119 121 -124 126 -132 133 -134 -135 137 139 142 -146 -149 -150 0
x 1 4 -5 -7 12 -13 18 21 22 -27 -29 36 37 -39 -41 -42 -48 49 50 52 57 62 -63 -66 -68 70 -71 73 -75 77 78 81 82 -84 -92 93 -94 -96 97 103 -106 -107 108 110 111 112 113 -117 119 120 121 -124 -126 127 -130 131 133 134 -136 138 -140 141 -143 -144 -145 -146 0
x -1 2 3 -5 10 -11 -13 18 -20 22 -26 28 29 31 -32 33 34 -35 36 -37 -39 40 44 -45 -46 51 55 56 61 62 63 -64 67 -69 -72 -73 76 -79 80 83 -84 85 88 -92 93 -94 -95 100 -101 103 104 -105 -107 110 111 -114 -115 117 -120 -121 123 -124 126 127 130 -132 -135 137 -138 139 -143 -147 150 0
x 1 6 -9 10 13 -14 16 -18 23 -24 -27 31 33 -34 36 -39 41 43 46 -47 -48 49 50 -53 -54 -55 56 -61 -62 -67 -68 70 -72 -73 -74 -76 77 78 80 82 83 -84 85 86 87 -88 89 91 -93 96 -97 -98 99 100 -101 -103 104 -105 106 107 108 111 -112 -114 116 117 119 -121 -122 123 -131 -132 134 -135 138 139 -140 143 -149 150 0
x 2 6 7 9 -11 13 16 17 21 22 25 -28 29 -32 -34 -36 -37 -41 43 -45 -47 48 -49 50 56 -57 59 -61 -64 -65 -67 -68 69 71 -75 -78 84 -85 -86 -89 -92 -93 95 96 97 98 -100 101 104 -105 -109 110 -113 115 116 -117 -118 120 -122 -124 -125 126 -128 129 131 -133 134 -135 136 -137 140 141 -143 -144 -146 0
x -2 3 9 -15 -21 -23 -25 26 28 30 31 -33 -34 -36 40 41 44 -45 -48 51 52 -54 -55 -57 60 63 -64 -65 67 -68 70 -71 72 -74 -75 76 -77 80 -81 -82 85 86 87 -88 89 -94 -95 96 -100 102 -104 113 -117 -118 -119 122 123 -126 127 -135 -136 138 139 140 -141 142 -143 145 -146 147 150 0
x -3 6 -8 -10 12 -14 -16 -17 -22 23 25 -26 27 -28 30 -32 -33 -34 -40 43 46 54 -55 56 -60 -61 -63 -64 -66 -67 68 69 -71 72 -73 -74 -75 -76 -80 -82 -85 -86 -87 89 -93 95 97 98 99 100 -101 105 -106 107 109 -110 111 -112 -113 -116 117 120 -123 124 130 -131 -133 134 -135 138 -140 -141 144 -146 -150 0
x 2 7 9 -10 -12 16 18 21 24 26 -27 -28 33 34 -35 37 -39 41 46 -49 50 -51 56 57 60 63 65 -67 -71 76 79 -83 85 -87 88 89 -90 -91 92 94 95 98 99 -101 -102 103 104 105 -106 -107 -108 -109 -110 111 112 115 -117 -118 -119 -120 121 -122 123 124 -126 -127 -128 -131 132 -136 137 142 -143 -144 145 0
x 1 2 -8 -10 11 14 -15 16 -17 -21 22 -24 25 29 30 -31 -32 -35 -36 -37 38 40 41 -45 -46 47 49 -50 52 -53 -55 -57 58 59 61 -67 68 70 -71 -72 -74 75 -81 84 85 92 -93 -94 96 -98 100 101 -103 -104 -106 -107 -109 112 113 -114 115 -116 118 -119 -120 -121 -122 123 -126 127 -131 -132 134 135 -140 -141 142 -144 146 149 150 0
x -2 -3 5 6 7 11 -13 -15 17 -18 20 21 -23 24 28 29 -32 36 -37 38 -39 -41 -44 -45 -46 47 -51 -53 54 -55 -57 -63 -67 70 71 -73 77 -78 80 82 84 85 87 88 -89 -90 -91 92 -93 -98 99 -100 -102 -103 105 -108 -110 112 116 -123 125 126 -127 129 -130 131 -134 136 -138 -143 146 0
x -1 5 6 8 -11 13 -14 16 -17 -20 -21 -23 24 25 26 -29 -30 31 32 -33 34 -35 39 40 -43 -44 46 47 -48 52 -54 -56 57 -58 59 61 62 66 -67 68 -69 -71 -73 74 78 81 -82 88 -89 -90 -91 -93 -94 95 97 -98 99 100 103 104 105 -107 108 110 112 114 -116 118 -121 124 125 129 130 131 132 -133 -138 -147 -148 -149 0
x -1 -2 -6 -7 10 12 -13 -14 -15 16 17 20 21 23 -25 27 -30 -33 35 38 39 40 -41 42 43 45 46 47 -52 54 -62 65 -68 -69 -72 74 77 78 -81 87 88 -92 94 -95 -96 100 101 -105 -107 -110 -111 -116 117 -119 122 123 -128 -130 131 133 138 140 143 145 149 -150 0
x 3 6 -7 10 15 -16 18 -22 -24 25 -28 30 31 32 -33 37 -38 39 -40 -41 -43 44 45 -49 51 52 54 -58 -59 -62 -64 -65 66 68 70 -71 -74 78 80 82 -83 -85 -86 87 -91 93 -94 -97 -98 -106 -107 -108 -110 -111 -113 115 118 119 120 121 126 128 -130 131 132 -138 -143 -144 146 148 -150 0
x -3 -7 8 9 14 -16 18 -20 -22 23 -29 -31 36 39 -40 -41 -44 45 -46 -55 61 62 -64 -65 67 68 -70 71 -72 -75 76 78 81 -82 86 87 -92 -94 -95 -97 -98 99 100 101 105 106 109 -110 111 -112 113 -117 -118 -120 122 123 -125 -126 -127 -130 -131 -133 -134 136 137 138 139 140 -142 143 -144 -145 -146 147 148 149 0
x -3 7 10 15 -16 17 -18 21 22 24 26 -27 28 32 35 -37 -39 40 -41 -43 -46 48 49 -50 -51 52 -53 55 56 -58 59 62 -64 -66 67 72 75 76 77 78 -79 82 -86 -88 90 -91 92 -95 -97 -98 100 102 104 -108 -112 113 -114 -116 -120 -121 -122 -125 126 -129 -132 -134 135 138 -139 140 142 145 147 148 0
x -2 -3 -4 -5 6 -12 15 17 18 21 -23 -26 28 29 -32 -34 35 39 40 45 -46 47 -49 51 53 -56 -59 60 61 -63 -64 -65 66 -67 -68 -69 70 74 76 80 -82 -84 88 -93 94 96 99 -101 -103 105 -106 -107 109 -111 113 114 -118 121 -123 -125 127 -132 133 -134 136 137 138 141 -142 143 -144 -147 0
x -1 2 -3 -4 5 -6 7 -12 -16 19 20 21 23 -25 26 -28 -30 32 33 -34 35 37 41 -42 -47 -52 55 -56 -59 61 63 -64 72 73 74 -75 -77 78 79 80 -81 -82 -83 -84 85 -86 -89 90 91 -92 -95 97 -99 -106 -110 -111 -113 114 -115 116 117 118 119 -122 -124 126 -127 -129 130 131 -134 135 -138 139 141 142 -145 -147 148 0
x 1 -3 6 9 10 13 -14 22 -24 -29 30 31 32 34 36 37 38 -39 -44 46 47 51 54 -58 60 61 63 64 -68 69 -70 73 75 -78 -79 -81 -82 -83 -84 -85 87 89 -90 -92 -93 96 98 99 102 -103 -104 -106 -107 108 109 110 111 117 -118 120 -123 -124 126 -127 -128 129 131 132 135 136 137 -138 140 141 -142 145 146 -148 149 0
x -1 2 3 4 5 6 -12 -16 -17 -18 19 21 23 -24 25 32 33 37 38 40 -41 -46 -48 -49 -50 51 52 54 55 -57 -58 -61 -66 -72 73 -74 75 -77 -78 81 82 85 -86 -88 -90 -94 -96 98 -101 -103 -104 -106 -110 112 -114 -116 117 -118 119 -120 -121 123 124 -129 130 -131 138 140 -143 -145 149 0
x -1 3 4 -8 -9 -10 11 -12 18 -19 -24 -26 27 -28 -29 -30 -31 -38 -40 -44 45 47 48 -55 -56 -57 62 64 65 -66 69 70 72 -73 74 75 -76 77 -78 79 -80 81 -82 -83 -84 -90 -91 92 -93 -95 98 -101 -102 103 -104 105 106 -109 112 -114 115 -117 120 -121 -122 -124 -125 -129 130 -131 -132 -133 -134 137 -138 -140 141 142 -146 -147 150 0
x 5 -12 16 -25 29 -30 31 -32 35 38 40 -42 -50 51 52 58 59 -61 -62 65 -66 -68 71 -75 -77 -79 -80 81 82 -84 -85 88 90 -91 92 93 -94 95 96 -97 98 99 100 101 103 105 107 -110 111 115 118 -119 -120 -122 123 -124 -125 -126 -129 132 -134 135 -137 -138 140 141 142 -145 147 -149 150 0
x 1 -3 4 -6 -10 -11 -12 14 -15 16 -19 -20 22 24 25 26 27 -33 -35 -36 -37 39 44 -50 56 -58 -59 61 62 68 70 72 -73 -75 87 95 -96 -98 -101 103 104 108 111 -112 113 114 -119 120 122 124 125 -128 -129 -131 -132 -133 134 135 -139 141 143 -144 -148 0
x -2 3 -6 8 9 13 14 -21 -22 23 -25 28 -31 -32 35 -36 -37 -40 41 -42 43 -44 -46 47 49 -50 51 -54 -55 56 59 -60 -63 66 67 -68 72 73 -75 -77 78 79 82 86 -87 -89 90 91 -95 -98 -101 102 -103 104 105 106 108 -109 111 114 -115 116 118 -119 -124 125 -126 127 -133 -135 -136 141 144 -145 -147 148 -150 0
x -1 -2 -4 -8 -9 -10 11 -13 -14 16 21 22 -23 -25 27 -30 -33 34 35 36 -38 39 40 41 42 43 44 -45 -46 -47 -49 50 -51 -53 -55 56 -58 60 61 -63 64 65 67 68 -69 -70 71 -72 73 74 -75 -78 -79 -80 82 -83 84 -85 87 -90 94 -95 -96 99 -101 -102 -103 -104 -105 -108 110 114 -118 120 125 128 -135 136 -140 144 145 -146 -147 -149 -150 0
x -1 4 -9 -12 -14 -15 18 -22 -24 -25 26 28 29 30 32 -33 -34 38 -39 42 -43 44 45 -47 -48 49 -52 53 -55 -59 61 63 64 -65 66 -69 -71 72 74 -75 -76 -77 79 81 -82 83 -86 88 90 -93 99 100 103 104 105 106 -108 -109 110 -111 112 113 114 -116 -117 -118 -121 122 -123 124 125 -129 -135 -136 -137 -139 140 -141 -144 0
x 1 -6 12 13 -15 16 17 19 -20 21 22 24 26 30 -37 -38 -41 -42 -43 44 45 46 48 -50 -51 -53 54 -57 59 -61 -62 63 64 -65 66 67 69 70 74 75 -76 82 86 87 -88 89 -92 95 -96 99 -101 -103 -105 -106 107 110 113 116 -117 -120 -123 -127 -128 -130 131 134 -137 141 -142 147 -148 0
x -7 9 13 -14 -20 23 -24 25 -27 -28 29 -30 -31 34 -35 -36 -39 -42 -44 -46 -48 49 52 -53 -57 58 -59 -62 -63 -64 66 68 69 71 -72 73 -75 -77 -80 -81 84 87 -88 -89 -91 95 96 98 99 -104 108 -112 115 117 119 -120 -121 123 -126 127 128 130 132 133 -137 138 -139 142 -144 -147 148 0
x 1 -2 -4 -5 -6 -7 -8 -9 -11 12 -15 -17 -21 -24 -25 26 30 32 -33 34 -42 -45 -46 47 -48 -49 -50 -51 52 56 58 -59 -62 -64 65 -66 67 68 70 74 75 -78 80 83 84 -87 89 -90 91 92 -93 95 -96 98 -100 102 -105 106 -107 -108 110 -112 -113 -116 117 -121 122 -123 124 -125 126 128 -130 131 132 -133 -136 140 142 -145 146 -147 -148 150 0
x -2 3 4 8 9 -12 16 17 18 20 24 -25 -26 -28 -29 33 34 35 -37 38 -39 40 42 -44 47 -49 -51 52 -55 -57 58 -59 60 61 63 64 -67 68 -69 70 -73 -75 -79 -80 -81 -82 -83 -84 -87 89 -90 -92 -93 95 -96 -97 101 102 104 105 106 -107 113 -115 -119 -121 122 -123 124 -125 126 133 -134 -136 -137 -138 -139 -145 -147 -148 149 -150 0
x -1 -3 4 8 9 11 -12 15 -18 19 21 23 24 27 31 39 -41 43 45 46 48 52 -55 58 -59 60 -61 -62 66 -67 -69 -71 -79 80 -84 86 -87 -88 -91 94 96 -98 -101 105 -107 -108 -110 -111 112 -114 116 -117 118 119 -121 -124 126 -127 -128 129 131 -133 -134 140 142 -147 149 0
x -1 2 -3 5 7 -9 -10 -11 14 15 -16 -22 -25 -27 31 -33 -36 37 -38 -40 -41 -42 -43 46 47 -49 -57 58 61 -64 68 -69 71 73 -78 79 -80 81 -85 -88 -91 -94 95 99 101 -103 -108 -110 -117 -119 120 121 -122 126 129 -133 -135 -137 -138 -141 -143 144 146 0
x 1 -2 5 -6 9 11 12 14 -15 -16 -18 19 20 -22 23 25 27 -28 29 32 33 36 37 39 -42 -46 -50 -51 -52 -53 -54 -55 56 -66 67 -68 -69 71 -72 74 77 -81 -83 -85 91 -93 -94 96 97 100 -101 102 -107 -109 110 112 115 116 -117 119 -121 -124 126 -127 -128 -130 -131 134 137 139 141 143 144 146 150 0
x 2 -4 -6 -7 -10 11 -12 18 -20 -21 -25 -27 28 30 -31 -34 -35 -38 39 42 46 -48 -49 50 51 -52 55 57 58 59 60 -62 64 65 66 -68 -69 -70 -73 -74 78 -80 -83 84 85 -89 90 -91 92 -96 -99 100 -105 -106 112 115 -119 -123 125 126 127 128 -129 -130 -131 138 -139 142 -143 -145 147 148 -150 0
x 5 -6 9 10 -11 12 13 -14 -15 16 18 -19 -20 21 -22 25 28 -29 -30 -31 32 -33 41 42 45 -47 51 -54 -55 56 57 58 60 61 -62 63 66 -67 -70 -71 73 74 -75 -76 -77 -78 -83 84 -86 87 -88 -89 90 91 -93 98 103 105 -106 -109 110 -112 -113 -116 117 118 119 122 123 126 128 -132 133 -134 135 136 -139 140 141 -142 143 -144 145 -146 -148 150 0
x 1 -5 -6 -10 11 -13 -15 17 -19 -20 -22 24 26 27 -28 -30 -33 -36 37 -41 42 -43 -44 -46 -48 52 53 -55 57 -59 -62 64 65 -69 -70 74 77 80 -84 -85 -88 -97 -98 -103 -104 -105 -106 -108 -109 -113 114 -116 -117 118 -119 121 124 125 -126 -127 128 -135 -136 138 -139 -140 145 -148 0
x -1 2 -5 6 7 12 13 -14 16 19 22 24 -25 -26 29 30 -31 -32 -33 35 -38 -42 44 -45 -47 -48 -54 -57 59 61 64 67 69 70 -71 -75 -77 79 80 81 82 -83 84 86 87 88 -90 -91 94 -95 -97 -101 -102 -104 -105 -106 -107 -109 -112 118 -121 -124 -126 129 -130 131 -136 -137 139 -141 -142 146 -148 149 -150 0
x 1 3 -5 -7 8 -11 -12 -15 16 -17 -18 -22 23 24 -25 -26 27 -30 -32 -34 -36 -38 39 -41 -42 44 -45 -46 -48 -50 -52 -57 -59 64 -65 66 67 74 78 -79 80 82 83 84 85 86 87 -88 -89 -90 -94 95 -97 98 -102 -104 -105 106 -107 108 109 110 -111 -112 120 -121 122 123 -124 127 -128 -129 -132 -133 134 -136 137 138 -139 141 145 148 149 0
x 1 4 -8 -9 10 21 -22 -24 -25 -27 -30 -33 35 -38 -39 -41 44 -45 50 51 52 55 56 58 59 60 -61 63 64 -65 66 -68 69 -70 71 -72 -73 75 77 -78 -80 -82 -86 -87 90 -94 96 -97 -99 100 102 -103 -104 105 -106 -107 110 116 -120 121 -123 -125 127 -129 -130 131 132 134 -135 -136 -137 138 -139 142 143 -144 -145 -147 -150 0
x 3 -6 9 11 16 17 -18 -22 -24 25 28 -29 -34 -35 37 38 39 -42 -43 46 -50 52 -53 54 -55 -57 58 59 -60 -61 -63 65 -67 -68 -73 -74 -75 76 -78 83 -86 90 91 -93 -94 95 102 -104 105 106 -107 -108 -110 111 -112 -117 -119 120 -121 122 -125 -127 -128 129 -131 -133 -135 136 -137 -138 -141 142 143 144 -145 147 -148 0
x 2 4 6 -10 15 16 18 -20 23 -24 26 27 28 -29 30 31 -33 -35 36 40 -41 44 45 -46 47 -48 49 -56 -57 59 -60 61 64 -68 70 -71 -72 75 -77 80 81 -82 83 -84 -86 -88 90 94 -96 99 101 104 105 107 -108 -109 -110 -111 112 -115 -118 119 -120 123 125 -126 -127 -129 131 -132 -133 -134 -135 -137 -138 139 -140 142 -149 0
x -1 2 3 5 -6 -7 8 -10 -11 -14 15 16 -19 -21 -24 -25 -26 -30 31 -32 33 34 -35 -39 -44 46 48 -50 53 -55 58 -59 62 -63 65 -68 -69 -71 -78 -80 83 84 85 86 -88 89 -91 93 -95 -96 -97 112 -113 114 115 117 118 -120 -124 125 126 -131 -135 -137 -139 -142 -145 -147 -150 0
x 1 4 -5 -7 -11 -14 -15 16 18 -19 20 -21 22 23 25 -26 27 29 30 31 -33 35 37 -38 -40 -42 -44 -48 49 -50 53 54 -56 61 -64 -66 69 73 75 -76 -77 78 79 80 81 -83 -84 -85 86 91 -93 94 101 -102 -104 -105 -107 -108 110 111 112 113 -116 121 122 -123 -124 -125 127 130 -132 133 135 -137 138 -139 140 141 143 -145 -147 148 -149 0
x 4 -6 8 -9 10 -11 -13 15 -16 17 -18 22 -23 27 32 -33 34 37 -38 39 -46 47 -48 49 50 -51 52 -54 55 57 -59 -64 67 69 -72 73 74 -75 -77 -79 -80 -82 -83 86 87 89 90 -91 92 95 -96 97 98 100 -102 -104 -105 -106 107 108 -110 -114 -116 117 -118 -119 -121 -124 127 129 -130 -131 -132 -133 -138 -139 140 142 143 -146 -148 0
x 4 -5 6 -8 -9 10 12 14 17 19 -20 -23 24 27 -28 -33 36 38 -40 41 -43 45 -47 -48 -50 51 -55 -56 -66 67 68 69 -70 -71 -72 -75 -76 -77 78 80 -81 84 85 -86 -87 88 89 92 -94 -99 -100 -101 104 105 -106 -110 -112 113 114 115 116 -117 -118 -123 124 128 129 -130 -131 -132 -133 -135 138 -140 -142 143 144 149 0
x 6 13 15 -16 -17 20 -21 22 -23 -24 25 -27 28 29 31 -35 -37 -38 40 45 -47 -48 49 -50 52 54 55 -59 -61 62 63 64 -65 -67 -69 -71 -73 -76 -77 78 79 80 81 82 83 -85 -86 87 89 92 93 99 101 -106 -108 -116 -117 -118 119 -120 -122 -124 -132 134 136 138 140 -142 -147 150 0
x 2 3 -4 -7 8 -12 13 -14 17 -19 -20 -21 -22 23 -28 29 -31 32 -34 -35 -37 -39 41 44 -51 -55 -57 58 60 63 64 65 -67 -69 70 -71 73 74 -75 76 -77 80 -81 -82 83 86 -87 90 91 92 94 96 -98 -100 101 102 -103 105 108 -110 -111 -113 -114 116 119 124 125 126 127 -128 -129 130 -132 133 134 -138 -141 143 -145 148 150 0
x 1 2 3 -5 6 9 -10 14 18 19 21 26 28 29 -31 32 34 -38 -40 42 45 46 49 -51 53 55 -57 -58 -59 60 61 -67 71 72 -74 -75 78 -79 -82 -85 86 -90 92 -93 95 -99 103 -107 -111 112 113 116 117 -120 122 125 -126 127 -131 -134 -135 136 -139 142 144 -145 -147 148 -149 0
x -7 9 11 12 14 -15 16 20 -21 22 24 -25 26 -28 29 -30 -32 34 -36 -38 -39 -41 43 -45 46 -47 48 51 53 -55 -56 -57 -58 59 -62 -63 64 -65 -69 70 71 72 75 76 77 -78 82 -84 86 -87 88 89 -90 -92 -93 98 100 102 -104 -107 -108 -109 110 112 113 -122 -124 126 -127 129 -132 -133 -137 -138 -141 144 145 -147 149 0
x -2 6 7 -8 9 -12 -13 -15 16 -17 19 -20 22 -23 25 -27 29 32 -33 -37 -39 -42 43 45 46 47 -50 51 52 -53 -54 -55 -58 59 60 62 -64 65 73 -75 -78 80 -84 85 -92 93 -98 -99 101 -103 -104 105 106 -107 -108 -110 113 -115 -116 -118 -120 -121 -123 127 131 -133 -134 -136 138 141 142 -147 -148 -150 0
x 2 3 9 10 12 15 -18 19 20 21 22 -23 -25 -27 -30 -32 -34 35 -36 37 38 43 45 49 50 -51 -52 54 56 57 -58 60 62 65 69 -71 -72 74 77 -78 79 -82 84 -88 92 97 -98 -99 100 -102 -104 105 -106 -107 -109 -112 -113 114 -117 -120 -121 125 126 129 -131 -132 133 135 136 137 140 142 -143 -145 -146 -147 148 149 -150 0
x -1 3 -5 -9 -12 -13 15 -18 -20 -24 25 28 -30 31 32 -36 37 -40 -41 -42 44 48 -49 -51 -54 59 -60 61 64 66 -67 70 -71 74 -76 -78 -79 -80 81 86 89 90 -93 95 96 -97 -99 100 -106 107 115 -120 -123 -128 -131 -132 -135 -138 139 -141 -144 -146 -147 149 0
x 1 -4 -6 -7 8 9 -11 12 13 15 17 -20 22 23 -25 -28 29 -30 -31 34 -35 -36 -37 -40 -43 45 46 47 -55 -57 58 -61 -63 -66 69 74 77 78 -79 80 82 83 84 85 -86 87 -89 -91 96 -99 -102 103 -104 108 109 -112 114 -115 116 118 119 120 -122 -124 129 -134 -135 136 -137 139 -142 143 148 0
x -1 -3 -8 -10 13 -15 -19 21 23 24 -25 26 -27 -28 29 32 36 37 -38 -39 -42 43 44 -46 -47 52 -54 -55 -56 58 59 64 -65 66 67 -69 -70 71 -72 -74 -83 86 87 -90 -91 -92 -94 -96 -98 99 -100 -101 -102 -103 -105 106 112 -113 -115 -117 -118 -122 -124 -126 130 133 134 135 -136 -138 139 142 144 -145 -150 0
x -2 -3 -4 7 10 -12 14 17 18 19 20 -22 23 26 -27 -29 31 32 -34 -36 -40 -43 -44 -46 47 48 50 -51 55 -56 -58 61 64 66 67 -68 -69 70 -71 75 -77 78 -83 -84 -85 86 88 89 -91 93 97 98 102 -103 -108 111 114 115 118 126 127 129 -130 131 -135 137 139 -142 143 -144 145 -146 149 0
x -1 -6 8 -9 10 -11 12 -14 18 -19 20 -21 22 24 25 -29 31 -32 -35 -37 -39 41 42 -44 46 -48 -49 -51 53 -57 62 -64 67 68 -70 71 -74 75 -78 -83 -84 -86 87 -88 -89 -91 -97 99 100 -101 102 103 104 105 -111 113 -114 -115 118 120 125 126 -127 129 130 -131 -136 137 -138 -140 141 142 -146 150 0
